; benchmark generated from python API
(set-info :status unknown)
(declare-fun DISJ_W_S2_R_S1 () Bool)
(declare-fun DISJ_W_S1_R_S2 () Bool)
(declare-fun DISJ_W_S1_R_S1 () Bool)
(declare-fun DISJ_W_S1_W_S2 () Bool)
(declare-fun R_S1_V1 () Bool)
(declare-fun DISJ_W_S2_R_S2 () Bool)
(declare-fun R_E1_V4 () Bool)
(declare-fun W_S1_V4 () Bool)
(declare-fun R_E1_V5 () Bool)
(declare-fun W_S1_V5 () Bool)
(declare-fun W_S2_V5 () Bool)
(declare-fun W_S2_V2 () Bool)
(declare-fun W_S2_V3 () Bool)
(declare-fun W_S2_V1 () Bool)
(declare-fun R_S2_V4 () Bool)
(declare-fun R_S2_V5 () Bool)
(declare-fun R_S2_V2 () Bool)
(declare-fun R_S2_V3 () Bool)
(declare-fun R_S2_V1 () Bool)
(declare-fun R_S1_V4 () Bool)
(declare-fun R_S1_V5 () Bool)
(declare-fun R_S1_V2 () Bool)
(declare-fun R_S1_V3 () Bool)
(declare-fun R_E1_V2 () Bool)
(declare-fun DISJ_W_S2_R_E1 () Bool)
(declare-fun R_E1_V3 () Bool)
(declare-fun W_S2_V4 () Bool)
(declare-fun W_S1_V3 () Bool)
(declare-fun W_S1_V2 () Bool)
(declare-fun W_S1_V1 () Bool)
(declare-fun R_E1_V1 () Bool)
(declare-fun DISJ_W_S1_R_E1 () Bool)
(assert
 (let (($x1786 (and DISJ_W_S1_R_S2 DISJ_W_S2_R_S1)))
 (let (($x5020 (not $x1786)))
 (let (($x4088 (not (and (not R_S1_V1) DISJ_W_S2_R_S1 DISJ_W_S1_W_S2 DISJ_W_S1_R_S1))))
 (let (($x4221 (and DISJ_W_S2_R_S1 DISJ_W_S2_R_S2)))
 (let (($x3643 (not $x4221)))
 (let (($x239 (not (and W_S1_V4 R_E1_V4))))
 (let (($x1189 (not (and W_S1_V5 R_E1_V5))))
 (let (($x959 (forall ((V3_0 Int) )(forall ((V2_0 Int) )(forall ((V5_0 Int) )(forall ((V4_0 Int) )(forall ((MW_S1_V1 Bool) )(forall ((MW_S1_V3 Bool) )(forall ((MW_S1_V2 Bool) )(forall ((MW_S1_V5 Bool) )(forall ((MW_S1_V4 Bool) )(forall ((MW_S2_V1 Bool) )(forall ((MW_S2_V3 Bool) )(forall ((MW_S2_V2 Bool) )(forall ((MW_S2_V5 Bool) )(forall ((MW_S2_V4 Bool) )(forall ((S1_V1_!6074 Int) )(forall ((S1_V1_!6084 Int) )(forall ((S1_V1_!6095 Int) )(forall ((S1_V1_!6100 Int) )(forall ((S2_V5_!6082 Int) )(forall ((S2_V5_!6092 Int) )(forall ((S2_V5_!6109 Int) )(forall ((S2_V5_!6114 Int) )(forall ((S1_V3_!6075 Int) )(forall ((S1_V3_!6085 Int) )(forall ((S1_V3_!6096 Int) )(forall ((S1_V3_!6101 Int) )(forall ((S1_V2_!6076 Int) )(forall ((S1_V2_!6086 Int) )(forall ((S1_V2_!6097 Int) )(forall ((S1_V2_!6102 Int) )(forall ((E1_!6073 Int) )(forall ((E1_!6094 Int) )(forall ((E1_!6105 Int) )(forall ((S2_V4_!6083 Int) )(forall ((S2_V4_!6093 Int) )(forall ((S2_V4_!6110 Int) )(forall ((S2_V4_!6115 Int) )(forall ((S1_V5_!6077 Int) )(forall ((S1_V5_!6087 Int) )(forall ((S1_V5_!6098 Int) )(forall ((S1_V5_!6103 Int) )(forall ((S2_V1_!6079 Int) )(forall ((S2_V1_!6089 Int) )(forall ((S2_V1_!6106 Int) )(forall ((S2_V1_!6111 Int) )(forall ((S1_V4_!6078 Int) )(forall ((S1_V4_!6088 Int) )(forall ((S1_V4_!6099 Int) )(forall ((S1_V4_!6104 Int) )(forall ((S2_V2_!6081 Int) )(forall ((S2_V2_!6091 Int) )(forall ((S2_V2_!6108 Int) )(forall ((S2_V2_!6113 Int) )(forall ((S2_V3_!6080 Int) )(forall ((S2_V3_!6090 Int) )(forall ((S2_V3_!6107 Int) )(forall ((S2_V3_!6112 Int) )(let (($x4290 (= (ite MW_S2_V4 S2_V4_!6093 (ite MW_S1_V4 S1_V4_!6088 (ite MW_S2_V4 S2_V4_!6083 (ite MW_S1_V4 S1_V4_!6078 V4_0)))) (ite MW_S2_V4 S2_V4_!6115 (ite MW_S1_V4 S1_V4_!6104 V4_0)))))
 (let (($x5902 (= (ite MW_S2_V5 S2_V5_!6092 (ite MW_S1_V5 S1_V5_!6087 (ite MW_S2_V5 S2_V5_!6082 (ite MW_S1_V5 S1_V5_!6077 V5_0)))) (ite MW_S2_V5 S2_V5_!6114 (ite MW_S1_V5 S1_V5_!6103 V5_0)))))
 (let ((?x4149 (ite MW_S1_V2 S1_V2_!6102 V2_0)))
 (let ((?x2809 (ite MW_S2_V2 S2_V2_!6113 ?x4149)))
 (let ((?x3698 (ite MW_S1_V2 S1_V2_!6076 V2_0)))
 (let ((?x4825 (ite MW_S2_V2 S2_V2_!6081 ?x3698)))
 (let ((?x2228 (ite MW_S1_V2 S1_V2_!6086 ?x4825)))
 (let ((?x5238 (ite MW_S2_V2 S2_V2_!6091 ?x2228)))
 (let (($x5280 (= (ite MW_S2_V3 S2_V3_!6090 (ite MW_S1_V3 S1_V3_!6085 (ite MW_S2_V3 S2_V3_!6080 (ite MW_S1_V3 S1_V3_!6075 V3_0)))) (ite MW_S2_V3 S2_V3_!6112 (ite MW_S1_V3 S1_V3_!6101 V3_0)))))
 (let ((?x4943 (ite MW_S2_V1 S2_V1_!6106 E1_!6105)))
 (let ((?x1218 (+ 1 ?x4943)))
 (let ((?x4364 (ite MW_S2_V1 S2_V1_!6111 ?x1218)))
 (let ((?x1052 (ite MW_S1_V1 S1_V1_!6074 E1_!6073)))
 (let ((?x3283 (ite MW_S2_V1 S2_V1_!6079 ?x1052)))
 (let ((?x793 (+ 1 ?x3283)))
 (let ((?x1205 (ite MW_S1_V1 S1_V1_!6084 ?x793)))
 (let ((?x2097 (ite MW_S2_V1 S2_V1_!6089 ?x1205)))
 (let (($x5215 (>= (ite MW_S1_V1 S1_V1_!6100 (+ 1 (ite MW_S1_V1 S1_V1_!6095 E1_!6094))) (+ (- 1) ?x4149))))
 (let (($x3466 (and (not (<= V2_0 E1_!6073)) (not (<= ?x4825 ?x793)) (>= ?x2097 (+ (- 1) ?x5238)) (not (<= V2_0 E1_!6094)) (not (<= (ite MW_S1_V2 S1_V2_!6097 V2_0) (+ 1 (ite MW_S1_V1 S1_V1_!6095 E1_!6094)))) $x5215 (not (<= ?x4149 E1_!6105)) (not (<= (ite MW_S2_V2 S2_V2_!6108 ?x4149) ?x1218)) (>= ?x4364 (+ (- 1) ?x2809)))))
 (let (($x3399 (= S2_V3_!6112 S2_V3_!6090)))
 (let ((?x4163 (ite MW_S1_V4 S1_V4_!6078 V4_0)))
 (let ((?x858 (ite MW_S2_V4 S2_V4_!6083 ?x4163)))
 (let ((?x2316 (ite MW_S1_V4 S1_V4_!6088 ?x858)))
 (let ((?x2685 (ite MW_S1_V4 S1_V4_!6104 V4_0)))
 (let ((?x470 (ite MW_S2_V4 S2_V4_!6110 ?x2685)))
 (let (($x3036 (not R_S2_V4)))
 (let ((?x4693 (ite MW_S1_V5 S1_V5_!6077 V5_0)))
 (let ((?x4654 (ite MW_S2_V5 S2_V5_!6082 ?x4693)))
 (let ((?x5108 (ite MW_S1_V5 S1_V5_!6087 ?x4654)))
 (let ((?x2502 (ite MW_S1_V5 S1_V5_!6103 V5_0)))
 (let ((?x6040 (ite MW_S2_V5 S2_V5_!6109 ?x2502)))
 (let (($x10 (not R_S2_V5)))
 (let ((?x2001 (ite MW_S1_V3 S1_V3_!6075 V3_0)))
 (let ((?x2372 (ite MW_S2_V3 S2_V3_!6080 ?x2001)))
 (let ((?x914 (ite MW_S1_V3 S1_V3_!6085 ?x2372)))
 (let ((?x4908 (ite MW_S1_V3 S1_V3_!6101 V3_0)))
 (let ((?x2706 (ite MW_S2_V3 S2_V3_!6107 ?x4908)))
 (let (($x3984 (not R_S2_V3)))
 (let (($x3506 (and (or (not R_S2_V1) (= ?x4943 (+ (- 1) ?x1205))) (or $x3984 (= ?x2706 ?x914)) (or (not R_S2_V2) (= (ite MW_S2_V2 S2_V2_!6108 ?x4149) ?x2228)) (or $x10 (= ?x6040 ?x5108)) (or $x3036 (= ?x470 ?x2316)))))
 (let (($x3151 (not $x3506)))
 (let (($x5472 (= S2_V3_!6112 S2_V3_!6080)))
 (let (($x5925 (and (or (not R_S2_V1) (= ?x4943 (+ (- 1) ?x1052))) (or $x3984 (= ?x2706 ?x2001)) (or (not R_S2_V2) (= (ite MW_S2_V2 S2_V2_!6108 ?x4149) ?x3698)) (or $x10 (= ?x6040 ?x4693)) (or $x3036 (= ?x470 ?x4163)))))
 (let (($x2244 (not $x5925)))
 (let (($x926 (= S2_V3_!6107 S2_V3_!6112)))
 (let (($x1720 (and (or (not R_S2_V1) (= E1_!6105 ?x1218)) (or $x3984 (= ?x4908 ?x2706)) (or (not R_S2_V2) (= ?x4149 (ite MW_S2_V2 S2_V2_!6108 ?x4149))) (or $x10 (= ?x2502 ?x6040)) (or $x3036 (= ?x2685 ?x470)))))
 (let (($x2110 (= S2_V3_!6107 S2_V3_!6090)))
 (let (($x885 (and (or (not R_S2_V1) (= E1_!6105 ?x1205)) (or $x3984 (= ?x4908 ?x914)) (or (not R_S2_V2) (= ?x4149 ?x2228)) (or $x10 (= ?x2502 ?x5108)) (or $x3036 (= ?x2685 ?x2316)))))
 (let (($x4663 (not $x885)))
 (let (($x1103 (= S2_V3_!6107 S2_V3_!6080)))
 (let (($x1741 (and (or (not R_S2_V1) (= E1_!6105 ?x1052)) (or $x3984 (= ?x4908 ?x2001)) (or (not R_S2_V2) (= ?x4149 ?x3698)) (or $x10 (= ?x2502 ?x4693)) (or $x3036 (= ?x2685 ?x4163)))))
 (let (($x5887 (= S2_V3_!6090 S2_V3_!6080)))
 (let (($x3903 (and (or (not R_S2_V1) (= ?x1205 ?x1052)) (or $x3984 (= ?x914 ?x2001)) (or (not R_S2_V2) (= ?x2228 ?x3698)) (or $x10 (= ?x5108 ?x4693)) (or $x3036 (= ?x2316 ?x4163)))))
 (let (($x215 (not $x3903)))
 (let (($x2205 (= S2_V2_!6113 S2_V2_!6108)))
 (let (($x4043 (and (or (not R_S2_V1) (= ?x4943 (+ (- 1) E1_!6105))) (or $x3984 (= ?x2706 ?x4908)) (or (not R_S2_V2) (= (ite MW_S2_V2 S2_V2_!6108 ?x4149) ?x4149)) (or $x10 (= ?x6040 ?x2502)) (or $x3036 (= ?x470 ?x2685)))))
 (let (($x2893 (not $x4043)))
 (let (($x5908 (= S2_V2_!6091 S2_V2_!6108)))
 (let (($x841 (and (or (not R_S2_V1) (= ?x1205 E1_!6105)) (or $x3984 (= ?x914 ?x4908)) (or (not R_S2_V2) (= ?x2228 ?x4149)) (or $x10 (= ?x5108 ?x2502)) (or $x3036 (= ?x2316 ?x2685)))))
 (let (($x1646 (not $x841)))
 (let (($x2194 (= S2_V2_!6081 S2_V2_!6113)))
 (let (($x1237 (and (or (not R_S2_V1) (= ?x1052 ?x1218)) (or $x3984 (= ?x2001 ?x2706)) (or (not R_S2_V2) (= ?x3698 (ite MW_S2_V2 S2_V2_!6108 ?x4149))) (or $x10 (= ?x4693 ?x6040)) (or $x3036 (= ?x4163 ?x470)))))
 (let (($x2276 (not $x1237)))
 (let (($x4100 (= S2_V2_!6081 S2_V2_!6108)))
 (let (($x2343 (and (or (not R_S2_V1) (= ?x1052 E1_!6105)) (or $x3984 (= ?x2001 ?x4908)) (or (not R_S2_V2) (= ?x3698 ?x4149)) (or $x10 (= ?x4693 ?x2502)) (or $x3036 (= ?x4163 ?x2685)))))
 (let (($x1304 (not $x2343)))
 (let (($x363 (= S2_V2_!6081 S2_V2_!6091)))
 (let (($x2354 (and (or (not R_S2_V1) (= ?x1052 ?x1205)) (or $x3984 (= ?x2001 ?x914)) (or (not R_S2_V2) (= ?x3698 ?x2228)) (or $x10 (= ?x4693 ?x5108)) (or $x3036 (= ?x4163 ?x2316)))))
 (let (($x175 (not $x2354)))
 (let (($x1180 (= S1_V4_!6104 S1_V4_!6088)))
 (let (($x2903 (and (or (not R_S1_V1) (= (ite MW_S1_V1 S1_V1_!6095 E1_!6094) ?x3283)) (or (not R_S1_V3) (= (ite MW_S1_V3 S1_V3_!6096 V3_0) ?x2372)) (or (not R_S1_V2) (= (ite MW_S1_V2 S1_V2_!6097 V2_0) ?x4825)) (or (not R_S1_V5) (= (ite MW_S1_V5 S1_V5_!6098 V5_0) ?x4654)) (or (not R_S1_V4) (= (ite MW_S1_V4 S1_V4_!6099 V4_0) ?x858)))))
 (let (($x3382 (not $x2903)))
 (let (($x909 (not R_S1_V4)))
 (let (($x1155 (or $x909 (= (ite MW_S1_V4 S1_V4_!6099 V4_0) V4_0))))
 (let (($x3413 (not R_S1_V5)))
 (let (($x2431 (or $x3413 (= (ite MW_S1_V5 S1_V5_!6098 V5_0) V5_0))))
 (let (($x2543 (not R_S1_V2)))
 (let (($x2618 (or $x2543 (= (ite MW_S1_V2 S1_V2_!6097 V2_0) V2_0))))
 (let (($x4909 (not R_S1_V3)))
 (let (($x1433 (or $x4909 (= (ite MW_S1_V3 S1_V3_!6096 V3_0) V3_0))))
 (let (($x3026 (and (or (not R_S1_V1) (= (ite MW_S1_V1 S1_V1_!6095 E1_!6094) (+ (- 1) E1_!6073))) $x1433 $x2618 $x2431 $x1155)))
 (let (($x3598 (not $x3026)))
 (let (($x3248 (or $x909 (= V4_0 (ite MW_S1_V4 S1_V4_!6099 V4_0)))))
 (let (($x2486 (or $x3413 (= V5_0 (ite MW_S1_V5 S1_V5_!6098 V5_0)))))
 (let (($x30 (or $x2543 (= V2_0 (ite MW_S1_V2 S1_V2_!6097 V2_0)))))
 (let (($x704 (or $x4909 (= V3_0 (ite MW_S1_V3 S1_V3_!6096 V3_0)))))
 (let (($x5027 (and (or (not R_S1_V1) (= E1_!6094 (+ 1 (ite MW_S1_V1 S1_V1_!6095 E1_!6094)))) $x704 $x30 $x2486 $x3248)))
 (let (($x1081 (not $x5027)))
 (let (($x3173 (= S1_V4_!6099 S1_V4_!6088)))
 (let (($x2103 (or $x909 (= V4_0 ?x858))))
 (let (($x2212 (or $x3413 (= V5_0 ?x4654))))
 (let (($x5317 (or $x2543 (= V2_0 ?x4825))))
 (let (($x1733 (or $x4909 (= V3_0 ?x2372))))
 (let (($x97 (not (and (or (not R_S1_V1) (= E1_!6094 ?x793)) $x1733 $x5317 $x2212 $x2103))))
 (let (($x4579 (or $x909 (= ?x858 V4_0))))
 (let (($x1191 (or $x3413 (= ?x4654 V5_0))))
 (let (($x2616 (or $x2543 (= ?x4825 V2_0))))
 (let (($x260 (or $x4909 (= ?x2372 V3_0))))
 (let (($x2444 (and (or (not R_S1_V1) (= ?x3283 (+ (- 1) E1_!6073))) $x260 $x2616 $x1191 $x4579)))
 (let (($x4315 (not $x2444)))
 (let (($x2380 (= S2_V1_!6089 S2_V1_!6111)))
 (let (($x567 (and (or (not R_S2_V1) (= ?x1205 ?x1218)) (or $x3984 (= ?x914 ?x2706)) (or (not R_S2_V2) (= ?x2228 (ite MW_S2_V2 S2_V2_!6108 ?x4149))) (or $x10 (= ?x5108 ?x6040)) (or $x3036 (= ?x2316 ?x470)))))
 (let (($x235 (not $x567)))
 (let (($x5952 (= S1_V5_!6103 S1_V5_!6098)))
 (let (($x1658 (and (or (not R_S1_V1) (= (ite MW_S1_V1 S1_V1_!6095 E1_!6094) (+ (- 1) E1_!6094))) $x1433 $x2618 $x2431 $x1155)))
 (let (($x4184 (not $x1658)))
 (let (($x1171 (or (not (and (or (not R_S1_V1) (= E1_!6073 ?x793)) $x1733 $x5317 $x2212 $x2103)) (= S1_V5_!6077 S1_V5_!6087))))
 (let (($x3364 (and (or (not R_E1_V2) (= ?x4149 V2_0)) (or (not R_E1_V5) (= ?x2502 V5_0)) (or (not R_E1_V4) (= ?x2685 V4_0)))))
 (let (($x2861 (= E1_!6073 E1_!6105)))
 (let (($x1790 (and (or (not R_E1_V2) (= V2_0 ?x4149)) (or (not R_E1_V5) (= V5_0 ?x2502)) (or (not R_E1_V4) (= V4_0 ?x2685)))))
 (let (($x3606 (= E1_!6073 E1_!6094)))
 (let (($x1882 (and (or (not R_S1_V1) (= ?x3283 (ite MW_S1_V1 S1_V1_!6095 E1_!6094))) (or $x4909 (= ?x2372 (ite MW_S1_V3 S1_V3_!6096 V3_0))) (or $x2543 (= ?x4825 (ite MW_S1_V2 S1_V2_!6097 V2_0))) (or $x3413 (= ?x4654 (ite MW_S1_V5 S1_V5_!6098 V5_0))) (or $x909 (= ?x858 (ite MW_S1_V4 S1_V4_!6099 V4_0))))))
 (let (($x4944 (not $x1882)))
 (let (($x4212 (and (or (not R_S1_V1) (= ?x3283 (+ (- 1) E1_!6094))) $x260 $x2616 $x1191 $x4579)))
 (let (($x1768 (not $x4212)))
 (let (($x3715 (and (or (not R_S1_V1) (= E1_!6073 (+ 1 (ite MW_S1_V1 S1_V1_!6095 E1_!6094)))) $x704 $x30 $x2486 $x3248)))
 (let (($x5060 (not $x3715)))
 (let (($x2656 (and (or $x5060 (= S1_V1_!6074 S1_V1_!6100)) (or $x4315 (= S1_V1_!6084 S1_V1_!6074)) (or $x1768 (= S1_V1_!6084 S1_V1_!6095)) (or $x4944 (= S1_V1_!6084 S1_V1_!6100)) (or (not (or (not R_S1_V1) (= E1_!6094 E1_!6073))) (= S1_V1_!6095 S1_V1_!6074)) (or $x1081 (= S1_V1_!6095 S1_V1_!6100)) (or $x1304 (= S2_V5_!6082 S2_V5_!6109)) (or $x2276 (= S2_V5_!6082 S2_V5_!6114)) (or $x215 (= S2_V5_!6092 S2_V5_!6082)) (or $x1646 (= S2_V5_!6092 S2_V5_!6109)) (or $x235 (= S2_V5_!6092 S2_V5_!6114)) (or $x2893 (= S2_V5_!6114 S2_V5_!6109)) (or (not (or (not R_S1_V1) $x3606)) (= S1_V3_!6075 S1_V3_!6096)) (or $x4315 (= S1_V3_!6085 S1_V3_!6075)) (or $x1768 (= S1_V3_!6085 S1_V3_!6096)) (or $x4944 (= S1_V3_!6085 S1_V3_!6101)) (or $x3598 (= S1_V3_!6101 S1_V3_!6075)) (or $x4184 (= S1_V3_!6101 S1_V3_!6096)) (or $x5060 (= S1_V2_!6076 S1_V2_!6102)) (or $x4315 (= S1_V2_!6086 S1_V2_!6076)) (or $x1768 (= S1_V2_!6086 S1_V2_!6097)) (or $x4944 (= S1_V2_!6086 S1_V2_!6102)) (or (not (or (not R_S1_V1) (= E1_!6094 E1_!6073))) (= S1_V2_!6097 S1_V2_!6076)) (or $x1081 (= S1_V2_!6097 S1_V2_!6102)) $x3606 (or (not $x1790) $x2861) (or (not $x3364) (= E1_!6105 E1_!6094)) (or $x175 (= S2_V4_!6083 S2_V4_!6093)) (or $x1304 (= S2_V4_!6083 S2_V4_!6110)) (or $x4663 (= S2_V4_!6110 S2_V4_!6093)) (or $x2244 (= S2_V4_!6115 S2_V4_!6083)) (or $x3151 (= S2_V4_!6115 S2_V4_!6093)) (or $x2893 (= S2_V4_!6115 S2_V4_!6110)) $x1171 (or (not (or (not R_S1_V1) $x3606)) (= S1_V5_!6077 S1_V5_!6098)) (or $x97 (= S1_V5_!6098 S1_V5_!6087)) (or $x3598 (= S1_V5_!6103 S1_V5_!6077)) (or $x3382 (= S1_V5_!6103 S1_V5_!6087)) (or $x4184 $x5952) (or $x175 (= S2_V1_!6079 S2_V1_!6089)) (or $x1304 (= S2_V1_!6079 S2_V1_!6106)) (or $x2276 (= S2_V1_!6079 S2_V1_!6111)) (or $x1646 (= S2_V1_!6089 S2_V1_!6106)) (or $x235 $x2380) (or $x2893 (= S2_V1_!6111 S2_V1_!6106)) (or $x4315 (= S1_V4_!6088 S1_V4_!6078)) (or (not (or (not R_S1_V1) (= E1_!6094 E1_!6073))) (= S1_V4_!6099 S1_V4_!6078)) (or $x97 $x3173) (or $x1081 (= S1_V4_!6099 S1_V4_!6104)) (or $x3598 (= S1_V4_!6104 S1_V4_!6078)) (or $x3382 $x1180) (or $x175 $x363) (or $x1304 $x4100) (or $x2276 $x2194) (or $x1646 $x5908) (or $x3151 (= S2_V2_!6113 S2_V2_!6091)) (or $x2893 $x2205) (or $x215 $x5887) (or (not $x1741) $x1103) (or $x4663 $x2110) (or (not $x1720) $x926) (or $x2244 $x5472) (or $x3151 $x3399) (not MW_S1_V1) (not MW_S1_V2) (or (not MW_S1_V5) W_S1_V5) (or (not MW_S1_V4) W_S1_V4) (or (not MW_S2_V1) W_S2_V1) (or (not MW_S2_V3) W_S2_V3) (or (not MW_S2_V2) W_S2_V2) (or (not MW_S2_V5) W_S2_V5))))
 (or (not $x2656) (not $x3466) (and (= ?x2097 ?x4364) $x5280 (= ?x5238 ?x2809) $x5902 $x4290))))))))))))))))))))))))))))))))))))))))))))))))))))))))))))))))))))))))))))))))))))))))))))))))))))))))))))))))))))))))
 )
 )
 )
 )
 )
 )
 )
 )
 )
 )
 )
 )
 )
 )
 )
 )
 )
 )
 )
 )
 )
 )
 )
 )
 )
 )
 )
 )
 )
 )
 )
 )
 )
 )
 )
 )
 )
 )
 )
 )
 )
 )
 )
 )
 )
 )
 )
 )
 )
 )
 )
 )
 )
 )
 )
 )
 ))
 (let (($x5047 (not (or (and W_S2_V2 R_E1_V2) (and W_S2_V5 R_E1_V5) R_E1_V4))))
 (let (($x1557 (= DISJ_W_S2_R_E1 $x5047)))
 (let (($x851 (and W_S2_V5 R_S2_V5)))
 (let (($x1258 (and W_S2_V2 R_S2_V2)))
 (let (($x889 (and W_S2_V3 R_S2_V3)))
 (let (($x4282 (and W_S2_V1 R_S2_V1)))
 (let (($x3176 (= DISJ_W_S2_R_S2 (not (or $x4282 $x889 $x1258 $x851 R_S2_V4)))))
 (let (($x5758 (and W_S2_V5 R_S1_V5)))
 (let (($x3792 (and W_S2_V2 R_S1_V2)))
 (let (($x1884 (and W_S2_V3 R_S1_V3)))
 (let (($x1879 (and W_S2_V1 R_S1_V1)))
 (let (($x2668 (= DISJ_W_S2_R_S1 (not (or $x1879 $x1884 $x3792 $x5758 R_S1_V4)))))
 (let (($x2981 (= DISJ_W_S1_W_S2 (not (or W_S2_V3 (and W_S1_V5 W_S2_V5) W_S1_V4)))))
 (let (($x3761 (not R_E1_V3)))
 (let (($x1506 (not (or R_S2_V3 (and W_S1_V5 R_S2_V5) (and W_S1_V4 R_S2_V4)))))
 (let (($x4926 (= DISJ_W_S1_R_S2 $x1506)))
 (let (($x3206 (or R_S1_V3 (and W_S1_V5 R_S1_V5) (and W_S1_V4 R_S1_V4))))
 (let (($x3980 (= DISJ_W_S1_R_S1 (not $x3206))))
 (let (($x1434 (not W_S2_V5)))
 (let (($x2614 (not W_S2_V2)))
 (let (($x3984 (not R_S2_V3)))
 (let (($x1309 (not R_S2_V1)))
 (let (($x3667 (and $x1309 $x3984 $x2614 $x1434 DISJ_W_S2_R_S1)))
 (let (($x2771 (not W_S2_V3)))
 (let (($x10 (not R_S2_V5)))
 (let (($x3693 (and $x1309 $x10 $x2614 $x2771 DISJ_W_S2_R_S1)))
 (let (($x2044 (and $x1309 $x2614 $x1434 $x2771 DISJ_W_S2_R_S1)))
 (let (($x2224 (and $x1309 $x3984 $x10 $x2614 DISJ_W_S2_R_S1)))
 (let (($x3036 (not R_S2_V4)))
 (let (($x6067 (and $x1309 $x3036 $x2614 $x1434 DISJ_W_S2_R_S1)))
 (let (($x3363 (and $x1309 $x10 $x3036 $x2614 DISJ_W_S2_R_S1)))
 (let (($x72 (and $x1309 $x3036 $x2614 $x2771 DISJ_W_S2_R_S1)))
 (let (($x4882 (and $x1309 $x3984 $x3036 $x2614 DISJ_W_S2_R_S1)))
 (let (($x5799 (not W_S1_V4)))
 (let (($x6018 (and $x10 $x5799 $x2771 DISJ_W_S2_R_S1)))
 (let (($x5136 (and $x10 $x3036 $x2771 DISJ_W_S2_R_S1)))
 (let (($x2237 (and $x3036 (not W_S1_V5) $x2771 DISJ_W_S2_R_S1)))
 (let (($x1001 (and $x3036 $x1434 $x2771 DISJ_W_S2_R_S1)))
 (let (($x1644 (and DISJ_W_S1_W_S2 DISJ_W_S2_R_S1)))
 (let (($x2291 (and $x3984 $x5799 $x1434 DISJ_W_S2_R_S1)))
 (let (($x2353 (and (not W_S2_V1) $x2614)))
 (let (($x3310 (and $x3984 $x3036 $x1434 DISJ_W_S2_R_S1)))
 (let (($x862 (and $x2614 DISJ_W_S2_R_S2)))
 (let (($x1545 (or $x4221 $x862 $x1786 $x3310 $x2353 $x2291 $x1644 $x1001 $x2237 $x5136 $x6018 $x4882 $x72 $x3363 $x6067 $x2224 $x2044 $x3693 $x3667)))
 (let (($x3567 (not R_S1_V1)))
 (let (($x5100 (and $x3567 DISJ_W_S1_R_S1)))
 (let (($x3528 (and $x2614 DISJ_W_S2_R_S1 DISJ_W_S1_R_S1)))
 (let (($x1438 (or $x3528 $x2353 $x5100)))
 (let (($x5715 (not W_S1_V2)))
 (let (($x5689 (not W_S1_V1)))
 (let (($x967 (not R_E1_V1)))
 (let (($x3254 (and DISJ_W_S1_R_E1 $x967 $x5689 $x5715 $x1438 $x1545 W_S1_V3 W_S2_V4 $x3980 $x4926 $x3761 $x2981 $x2668 $x3176 $x1557 $x959 $x1189 $x239)))
 (and $x3254 $x3643 $x4088 $x5020))))))))))))))))))))))))))))))))))))))))))))))))))))))))))))))
(check-sat)
